TCS_Benchmarks/redos_fix/regexlib2_output_distinct_3293_3292_0_0.smt2
(set-logic QF_S)
(declare-const x String)
(assert (str.in.re x (re.inter  (re.++ (re.*  (re.union  (str.to.re "\u{70}") (re.union  (str.to.re "\u{3d}") (re.union  (str.to.re "\u{61}") (re.union  (str.to.re "\u{2e}") (re.union  (str.to.re "\u{2f}") (re.union  (str.to.re "\u{3f}") (re.union  (str.to.re "\u{26}") (re.union  (str.to.re "\u{3b}") (re.union (re.range "\u{30}" "\u{39}") (re.union  (str.to.re "\u{6d}") (re.range "\u{61}" "\u{7a}"))))))))))) ) (re.*  (re.union  (str.to.re "\u{70}") (re.union  (str.to.re "\u{3d}") (re.union  (str.to.re "\u{61}") (re.union  (str.to.re "\u{2e}") (re.union  (str.to.re "\u{2f}") (re.union  (str.to.re "\u{3f}") (re.union  (str.to.re "\u{26}") (re.union  (str.to.re "\u{3b}") (re.union (re.range "\u{30}" "\u{39}") (re.union  (str.to.re "\u{6d}") (re.range "\u{61}" "\u{7a}"))))))))))) ))  (re.++ (re.*  (re.union  (str.to.re "\u{70}") (re.union  (str.to.re "\u{3d}") (re.union  (str.to.re "\u{61}") (re.union  (str.to.re "\u{2e}") (re.union  (str.to.re "\u{2f}") (re.union  (str.to.re "\u{3f}") (re.union  (str.to.re "\u{26}") (re.union  (str.to.re "\u{3b}") (re.union (re.range "\u{30}" "\u{39}") (re.union  (str.to.re "\u{6d}") (re.range "\u{61}" "\u{7a}"))))))))))) ) (re.++  (re.union  (re.++  (str.to.re "\u{2e}") (re.++  (str.to.re "\u{68}") (re.++  (str.to.re "\u{74}")  (str.to.re "\u{6d}")))) (re.union  (re.++  (str.to.re "\u{2e}") (re.++  (str.to.re "\u{61}") (re.++  (str.to.re "\u{73}")  (str.to.re "\u{70}")))) (re.union  (re.++  (str.to.re "\u{2e}") (re.++  (str.to.re "\u{70}") (re.++  (str.to.re "\u{68}")  (str.to.re "\u{70}"))))  (re.++  (str.to.re "\u{2e}") (re.++  (str.to.re "\u{6a}") (re.++  (str.to.re "\u{73}")  (str.to.re "\u{70}"))))))) (re.*  (re.union  (str.to.re "\u{70}") (re.union  (str.to.re "\u{3d}") (re.union  (str.to.re "\u{61}") (re.union  (str.to.re "\u{2e}") (re.union  (str.to.re "\u{2f}") (re.union  (str.to.re "\u{3f}") (re.union  (str.to.re "\u{26}") (re.union  (str.to.re "\u{3b}") (re.union (re.range "\u{30}" "\u{39}") (re.union  (str.to.re "\u{6d}") (re.range "\u{61}" "\u{7a}"))))))))))) ))) )))
(check-sat)
(get-model)