TCS_Benchmarks/redos_fix/regexlib2_output_distinct_3293_3292_0_0.txt
([p\=a\.\/\?\&;0-9ma-z]*)([p\=a\.\/\?\&;0-9ma-z]*)
([p\=a\.\/\?\&;0-9ma-z]*)((\.htm|\.asp|\.php|\.jsp))([p\=a\.\/\?\&;0-9ma-z]*)